(declare-rel BinOpExp (expr binop expr expr))
(declare-rel CallExp (expr expr arg_list))
(declare-rel DUEdge (node node))
(declare-rel EvalLv (node lval loc))
(declare-rel Set (node lval expr))
(declare-rel ErrTrace (node node))
(declare-rel Arg (arg_list int expr))
(declare-rel LibCallExp (expr expr arg_list))
(declare-rel LvalExp (expr lval))
(declare-rel Skip (node))
(declare-rel ReadCallExp (expr expr arg_list))
(declare-rel Assume (node expr))
(declare-rel UnOpExp (expr unop expr))
(rule (Arg 25 26 27))
(rule (Arg 28 29 27))
(rule (Arg 30 31 32))
(rule (Arg 33 34 35))
(rule (Arg 33 36 27))
(rule (Arg 33 37 38))
(rule (Arg 33 39 40))
(rule (Assume 41 42))
(rule (BinOpExp 43 12 35 44))
(rule (CallExp 45 46 47))
(rule (CallExp 48 49 30))
(rule (DUEdge 50 51))
(rule (DUEdge 52 53))
(rule (DUEdge 51 52))
(rule (DUEdge 54 41))
(rule (DUEdge 54 55))
(rule (DUEdge 41 55))
(rule (DUEdge 56 57))
(rule (DUEdge 55 54))
(rule (DUEdge 58 59))
(rule (DUEdge 59 54))
(rule (DUEdge 57 54))
(rule (DUEdge 53 54))
(rule (DUEdge 53 56))
(rule (DUEdge 53 55))
(rule (DUEdge 53 58))
(rule (EvalLv 50 60 61))
(rule (EvalLv 50 62 63))
(rule (EvalLv 50 64 65))
(rule (EvalLv 52 66 67))
(rule (EvalLv 52 68 69))
(rule (EvalLv 41 70 71))
(rule (EvalLv 56 70 71))
(rule (EvalLv 56 72 73))
(rule (EvalLv 56 74 75))
(rule (EvalLv 55 76 77))
(rule (EvalLv 55 78 79))
(rule (EvalLv 55 80 81))
(rule (EvalLv 55 70 71))
(rule (EvalLv 55 74 75))
(rule (EvalLv 58 70 71))
(rule (EvalLv 58 72 73))
(rule (EvalLv 58 74 75))
(rule (LibCallExp 82 83 33))
(rule (LvalExp 46 68))
(rule (LvalExp 49 62))
(rule (LvalExp 32 64))
(rule (LvalExp 35 70))
(rule (LvalExp 83 78))
(rule (LvalExp 38 80))
(rule (LvalExp 84 72))
(rule (LvalExp 27 74))
(rule (ReadCallExp 85 84 25))
(rule (ReadCallExp 86 84 28))
(rule (Set 50 60 48))
(rule (Set 52 66 45))
(rule (Set 56 70 85))
(rule (Set 55 76 82))
(rule (Set 58 70 86))
(rule (Skip 54))
(rule (Skip 59))
(rule (Skip 57))
(rule (UnOpExp 42 23 87))
(rule (UnOpExp 87 23 43))
(rule (=> (and (Set 58 70 86)
         (Set 55 76 82)
         (Set 56 70 85)
         (ReadCallExp 86 84 28)
         (ReadCallExp 85 84 25)
         (LvalExp 35 70)
         (LibCallExp 82 83 33)
         (EvalLv 58 70 71)
         (EvalLv 55 70 71)
         (EvalLv 56 70 71)
         (Arg 33 34 35))
    (ErrTrace 58 55)))
